30
1 0 18
2 1 10
3 0 16
3 1 10
4 0 12
5 0 17
5 1 15
5 2 12
5 4 20
6 1 16
6 2 17
6 5 11
7 0 20
7 1 2
7 2 16
7 3 19
7 4 16
7 5 5
7 6 15
8 0 19
8 2 17
8 5 15
8 6 4
8 7 16
9 0 18
9 4 10
9 7 13
9 8 10
10 0 15
10 3 11
10 6 19
10 7 11
10 8 7
10 9 8
11 0 10
11 2 2
11 4 4
11 5 13
11 7 19
11 9 19
11 10 10
12 1 7
12 2 17
12 5 2
12 7 9
12 8 13
12 9 5
12 10 3
13 1 13
13 3 20
13 4 2
13 5 20
13 6 18
13 7 6
13 8 9
13 10 7
13 12 8
14 0 2
14 1 19
14 2 19
14 4 15
14 5 19
14 7 17
14 9 15
14 12 17
14 13 17
15 0 4
15 2 6
15 3 11
15 6 13
15 7 13
15 8 19
15 10 7
15 11 6
15 14 18
16 0 2
16 1 18
16 4 15
16 5 19
16 8 6
16 9 10
16 10 3
16 11 1
16 12 18
16 14 14
17 0 12
17 3 8
17 4 12
17 5 10
17 6 1
17 7 20
17 9 16
17 11 2
17 13 2
17 14 2
17 15 2
17 16 18
18 1 11
18 2 19
18 3 18
18 5 18
18 7 15
18 8 7
18 9 19
18 10 13
18 11 3
18 14 4
18 15 2
18 16 20
19 1 2
19 3 16
19 4 12
19 7 17
19 8 11
19 13 1
19 15 6
19 16 7
19 17 15
19 18 8
20 1 20
20 3 18
20 4 2
20 6 2
20 8 7
20 10 14
20 11 5
20 12 2
20 15 3
20 16 13
20 18 18
21 0 1
21 2 2
21 4 8
21 7 16
21 8 18
21 10 6
21 11 20
21 12 1
21 16 10
21 17 2
21 18 20
21 19 18
21 20 20
22 0 20
22 2 5
22 3 18
22 5 1
22 6 15
22 7 3
22 8 16
22 12 5
22 13 13
22 14 3
22 15 8
22 21 2
23 0 14
23 1 14
23 2 6
23 3 7
23 5 7
23 6 9
23 7 18
23 8 19
23 9 8
23 10 17
23 11 18
23 13 5
23 14 19
23 15 4
23 16 16
23 18 7
23 20 20
23 22 20
24 0 1
24 1 4
24 3 9
24 5 15
24 8 2
24 9 1
24 14 2
24 15 17
24 19 14
24 20 15
24 21 14
24 22 6
25 0 17
25 4 12
25 7 6
25 8 19
25 10 3
25 11 4
25 13 17
25 16 6
25 18 2
25 19 15
25 20 6
25 21 7
26 1 8
26 2 2
26 3 11
26 5 7
26 8 9
26 9 14
26 10 12
26 13 19
26 16 16
26 17 17
26 19 8
26 20 2
26 22 13
26 23 10
27 0 18
27 1 5
27 7 3
27 8 17
27 9 11
27 11 11
27 14 17
27 16 18
27 19 6
27 20 18
27 21 1
27 23 4
27 26 19
28 1 12
28 2 4
28 3 8
28 4 17
28 5 10
28 6 14
28 7 17
28 8 12
28 9 4
28 10 15
28 11 17
28 12 7
28 13 16
28 14 1
28 15 3
28 17 19
28 18 4
28 19 16
28 22 16
28 23 5
28 25 12
28 26 15
28 27 12
29 0 2
29 2 5
29 3 5
29 7 10
29 8 17
29 10 17
29 11 8
29 12 10
29 13 11
29 14 12
29 15 13
29 17 5
29 20 8
29 22 5
29 23 15
29 24 7
29 25 19
29 26 17
29 28 11
